(set-logic QF_S)
(declare-fun var0 () String)
(assert (str.in.re var0 (re.++ (re.* (re.+ (str.to.re "000"))) (re.++ (re.* (re.+ (str.to.re "111"))) (re.++ (re.union (re.+ (str.to.re "2")) (re.+ (str.to.re "3"))) (re.++ (re.union (re.* (str.to.re "4")) (re.* (str.to.re "555"))) (re.++ (re.+ (re.* (str.to.re "66"))) (re.++ (re.* (re.union (str.to.re "777") (str.to.re "8"))) (re.++ (re.+ (re.+ (str.to.re "999"))) (re.++ (re.* (re.* (str.to.re "aa"))) (re.++ (re.union (re.* (str.to.re "bb")) (re.* (str.to.re "cc"))) (re.++ (re.union (re.+ (str.to.re "d")) (re.+ (str.to.re "ee"))) (re.++ (re.+ (re.+ (str.to.re "f"))) (re.++ (re.union (re.* (str.to.re "ggg")) (re.* (str.to.re "hhh"))) (re.++ (re.+ (re.union (str.to.re "i") (str.to.re "jjj"))) (re.++ (re.* (re.union (str.to.re "kk") (str.to.re "ll"))) (re.++ (re.+ (re.* (str.to.re "mm"))) (re.++ (re.+ (re.+ (str.to.re "nn"))) (re.++ (re.* (re.* (str.to.re "oo"))) (re.++ (re.* (re.* (str.to.re "ppp"))) (re.++ (re.* (re.* (str.to.re "qq"))) (re.++ (re.union (re.+ (str.to.re "r")) (re.+ (str.to.re "sss"))) (re.++ (re.union (re.* (str.to.re "tt")) (re.* (str.to.re "uu"))) (re.++ (re.union (re.union (str.to.re "vvv") (str.to.re "www")) (re.union (str.to.re "x") (str.to.re "y"))) (re.++ (re.+ (re.+ (str.to.re "zzz"))) (re.++ (re.union (re.* (str.to.re "AA")) (re.* (str.to.re "BBB"))) (re.++ (re.* (re.+ (str.to.re "CCC"))) (re.++ (re.union (re.+ (str.to.re "DDD")) (re.+ (str.to.re "EEE"))) (re.++ (re.* (re.union (str.to.re "FF") (str.to.re "G"))) (re.++ (re.* (re.+ (str.to.re "HH"))) (re.++ (re.union (re.union (str.to.re "III") (str.to.re "J")) (re.union (str.to.re "KK") (str.to.re "LL"))) (re.++ (re.union (re.* (str.to.re "MMM")) (re.* (str.to.re "NNN"))) (re.++ (re.union (re.+ (str.to.re "OO")) (re.+ (str.to.re "P"))) (re.++ (re.union (re.union (str.to.re "QQ") (str.to.re "R")) (re.union (str.to.re "SSS") (str.to.re "T"))) (re.++ (re.* (re.+ (str.to.re "UUU"))) (re.++ (re.+ (re.+ (str.to.re "V"))) (re.++ (re.+ (re.union (str.to.re "WW") (str.to.re "XX"))) (re.++ (re.* (re.+ (str.to.re "YYY"))) (re.++ (re.* (re.* (str.to.re "Z"))) (re.++ (re.union (re.* (str.to.re "!!!")) (re.* (str.to.re """"""))) (re.++ (re.union (re.* (str.to.re "###")) (re.* (str.to.re "$"))) (re.++ (re.+ (re.union (str.to.re "%%") (str.to.re "&&"))) (re.++ (re.union (re.+ (str.to.re "'")) (re.+ (str.to.re "((("))) (re.++ (re.* (re.* (str.to.re ")"))) (re.++ (re.* (re.union (str.to.re "***") (str.to.re "++"))) (re.++ (re.union (re.union (str.to.re ",") (str.to.re "---")) (re.union (str.to.re "..") (str.to.re "///"))) (re.++ (re.union (re.* (str.to.re ":")) (re.* (str.to.re ";;;"))) (re.++ (re.union (re.* (str.to.re "<<<")) (re.* (str.to.re "=="))) (re.++ (re.union (re.+ (str.to.re ">>")) (re.+ (str.to.re "?"))) (re.++ (re.+ (re.* (str.to.re "@@@"))) (re.++ (re.+ (re.* (str.to.re "[[["))) (re.++ (re.+ (re.union (str.to.re "\\\\\\") (str.to.re "]]]"))) (re.++ (re.union (re.union (str.to.re "^^") (str.to.re "_")) (re.union (str.to.re "`") (str.to.re "{{{"))) (re.++ (re.+ (re.+ (str.to.re "||"))) (re.++ (re.* (re.union (str.to.re "}}}") (str.to.re "~~~"))) (re.++ (re.union (re.union (str.to.re "00") (str.to.re "11")) (re.union (str.to.re "222") (str.to.re "3"))) (re.++ (re.* (re.+ (str.to.re "44"))) (re.++ (re.union (re.union (str.to.re "555") (str.to.re "66")) (re.union (str.to.re "777") (str.to.re "88"))) (re.++ (re.union (re.* (str.to.re "99")) (re.* (str.to.re "aaa"))) (re.++ (re.union (re.* (str.to.re "bbb")) (re.* (str.to.re "ccc"))) (re.++ (re.+ (re.union (str.to.re "ddd") (str.to.re "eee"))) (re.++ (re.union (re.* (str.to.re "f")) (re.* (str.to.re "ggg"))) (re.++ (re.union (re.union (str.to.re "h") (str.to.re "iii")) (re.union (str.to.re "jjj") (str.to.re "kkk"))) (re.++ (re.union (re.* (str.to.re "ll")) (re.* (str.to.re "mm"))) (re.++ (re.* (re.* (str.to.re "n"))) (re.++ (re.* (re.+ (str.to.re "ooo"))) (re.++ (re.union (re.+ (str.to.re "ppp")) (re.+ (str.to.re "qq"))) (re.++ (re.* (re.union (str.to.re "rr") (str.to.re "sss"))) (re.++ (re.union (re.union (str.to.re "t") (str.to.re "uu")) (re.union (str.to.re "vv") (str.to.re "ww"))) (re.++ (re.+ (re.* (str.to.re "x"))) (re.++ (re.* (re.+ (str.to.re "yy"))) (re.++ (re.* (re.+ (str.to.re "zzz"))) (re.++ (re.+ (re.union (str.to.re "AA") (str.to.re "BB"))) (re.++ (re.+ (re.+ (str.to.re "CC"))) (re.++ (re.* (re.union (str.to.re "D") (str.to.re "E"))) (re.++ (re.union (re.union (str.to.re "FFF") (str.to.re "GGG")) (re.union (str.to.re "HH") (str.to.re "I"))) (re.++ (re.* (re.* (str.to.re "JJJ"))) (re.+ (re.union (str.to.re "KKK") (str.to.re "LLL"))))))))))))))))))))))))))))))))))))))))))))))))))))))))))))))))))))))))))))))))
(assert (not (str.in.re var0 (re.++ (re.+ (re.+ (str.to.re "0"))) (re.++ (re.union (re.* (str.to.re "111")) (re.* (str.to.re "22"))) (re.++ (re.union (re.+ (str.to.re "3")) (re.+ (str.to.re "444"))) (re.++ (re.* (re.union (str.to.re "555") (str.to.re "6"))) (re.++ (re.* (re.+ (str.to.re "7"))) (re.++ (re.+ (re.+ (str.to.re "88"))) (re.++ (re.* (re.* (str.to.re "99"))) (re.++ (re.* (re.* (str.to.re "aaa"))) (re.++ (re.union (re.+ (str.to.re "b")) (re.+ (str.to.re "cc"))) (re.++ (re.+ (re.union (str.to.re "d") (str.to.re "ee"))) (re.++ (re.* (re.union (str.to.re "ff") (str.to.re "gg"))) (re.++ (re.union (re.+ (str.to.re "hh")) (re.+ (str.to.re "iii"))) (re.++ (re.union (re.+ (str.to.re "jj")) (re.+ (str.to.re "k"))) (re.++ (re.union (re.union (str.to.re "lll") (str.to.re "m")) (re.union (str.to.re "nnn") (str.to.re "o"))) (re.++ (re.union (re.* (str.to.re "pp")) (re.* (str.to.re "qq"))) (re.++ (re.+ (re.* (str.to.re "rr"))) (re.++ (re.* (re.* (str.to.re "ss"))) (re.++ (re.* (re.union (str.to.re "ttt") (str.to.re "uu"))) (re.++ (re.union (re.union (str.to.re "v") (str.to.re "ww")) (re.union (str.to.re "xxx") (str.to.re "y"))) (re.++ (re.* (re.union (str.to.re "zzz") (str.to.re "A"))) (re.++ (re.union (re.union (str.to.re "BB") (str.to.re "CC")) (re.union (str.to.re "DDD") (str.to.re "EE"))) (re.++ (re.union (re.union (str.to.re "FF") (str.to.re "G")) (re.union (str.to.re "H") (str.to.re "I"))) (re.++ (re.* (re.* (str.to.re "JJ"))) (re.++ (re.+ (re.union (str.to.re "KK") (str.to.re "LL"))) (re.++ (re.* (re.+ (str.to.re "M"))) (re.++ (re.* (re.union (str.to.re "NNN") (str.to.re "OOO"))) (re.++ (re.union (re.union (str.to.re "P") (str.to.re "QQQ")) (re.union (str.to.re "R") (str.to.re "SSS"))) (re.++ (re.* (re.union (str.to.re "TTT") (str.to.re "UU"))) (re.++ (re.union (re.* (str.to.re "VVV")) (re.* (str.to.re "WW"))) (re.++ (re.union (re.* (str.to.re "X")) (re.* (str.to.re "Y"))) (re.++ (re.+ (re.union (str.to.re "ZZZ") (str.to.re "!!"))) (re.++ (re.union (re.union (str.to.re """""") (str.to.re "#")) (re.union (str.to.re "$") (str.to.re "%"))) (re.++ (re.+ (re.* (str.to.re "&&&"))) (re.++ (re.union (re.* (str.to.re "'''")) (re.* (str.to.re "("))) (re.++ (re.+ (re.+ (str.to.re ")))"))) (re.++ (re.* (re.+ (str.to.re "**"))) (re.++ (re.union (re.+ (str.to.re "+++")) (re.+ (str.to.re ",,"))) (re.++ (re.+ (re.* (str.to.re "--"))) (re.++ (re.* (re.union (str.to.re "...") (str.to.re "///"))) (re.++ (re.+ (re.union (str.to.re ":") (str.to.re ";;"))) (re.++ (re.* (re.+ (str.to.re "<<<"))) (re.++ (re.* (re.* (str.to.re "==="))) (re.++ (re.union (re.* (str.to.re ">")) (re.* (str.to.re "?"))) (re.++ (re.* (re.* (str.to.re "@@"))) (re.++ (re.* (re.union (str.to.re "[") (str.to.re "\\\\\\"))) (re.++ (re.union (re.+ (str.to.re "]")) (re.+ (str.to.re "^^"))) (re.++ (re.+ (re.union (str.to.re "___") (str.to.re "```"))) (re.++ (re.* (re.* (str.to.re "{{{"))) (re.++ (re.union (re.+ (str.to.re "|")) (re.+ (str.to.re "}"))) (re.++ (re.* (re.+ (str.to.re "~~~"))) (re.++ (re.+ (re.+ (str.to.re "00"))) (re.++ (re.+ (re.union (str.to.re "11") (str.to.re "222"))) (re.++ (re.* (re.* (str.to.re "3"))) (re.++ (re.* (re.+ (str.to.re "4"))) (re.++ (re.union (re.+ (str.to.re "555")) (re.+ (str.to.re "66"))) (re.++ (re.* (re.union (str.to.re "77") (str.to.re "888"))) (re.++ (re.+ (re.+ (str.to.re "9"))) (re.++ (re.union (re.+ (str.to.re "aaa")) (re.+ (str.to.re "bbb"))) (re.++ (re.union (re.* (str.to.re "ccc")) (re.* (str.to.re "ddd"))) (re.++ (re.union (re.union (str.to.re "eee") (str.to.re "ff")) (re.union (str.to.re "gg") (str.to.re "hh"))) (re.++ (re.+ (re.* (str.to.re "iii"))) (re.++ (re.* (re.+ (str.to.re "jj"))) (re.++ (re.union (re.union (str.to.re "k") (str.to.re "l")) (re.union (str.to.re "mm") (str.to.re "nnn"))) (re.++ (re.union (re.+ (str.to.re "oo")) (re.+ (str.to.re "p"))) (re.++ (re.* (re.* (str.to.re "q"))) (re.++ (re.+ (re.+ (str.to.re "rrr"))) (re.++ (re.union (re.* (str.to.re "sss")) (re.* (str.to.re "t"))) (re.++ (re.union (re.union (str.to.re "uu") (str.to.re "vv")) (re.union (str.to.re "w") (str.to.re "xxx"))) (re.++ (re.* (re.+ (str.to.re "y"))) (re.++ (re.* (re.+ (str.to.re "zz"))) (re.++ (re.union (re.+ (str.to.re "AA")) (re.+ (str.to.re "BBB"))) (re.++ (re.* (re.* (str.to.re "C"))) (re.++ (re.+ (re.union (str.to.re "DDD") (str.to.re "EE"))) (re.++ (re.* (re.* (str.to.re "F"))) (re.++ (re.union (re.* (str.to.re "GG")) (re.* (str.to.re "HHH"))) (re.+ (re.+ (str.to.re "III")))))))))))))))))))))))))))))))))))))))))))))))))))))))))))))))))))))))))))))))))
(check-sat)